language ESSENCE' 1.0

letting jobs = 102
letting horizon = 824
letting resourcesRenew = 2
letting resourcesNonrenew = 2
letting resourceLimits = [50, 49, 288, 255]
letting successors = [[2, 3, 4, 5, 6, 7, 8, 9, 10, 13, 14, 16, 17, 21, 22, 24, 25, 26, 28, 34], [40, 39, 37, 36, 35, 31, 19, 11], [46, 45, 40, 39, 35, 29, 12, 11], [60, 46, 43, 42, 39, 38, 35, 30, 29, 19, 15], [55, 45, 36, 32, 31, 23, 18, 15], [52, 44, 43, 42, 40, 37, 30, 29, 19], [60, 53, 52, 48, 46, 42, 40, 39, 27, 19], [52, 45, 43, 41, 40, 33, 32, 30, 23], [70, 57, 55, 52, 48, 46, 42, 41, 38, 36, 32, 29], [49, 32, 23, 20], [55, 52, 50, 49, 44, 42, 38, 33, 32, 30], [57, 49, 41, 37, 33, 20], [60, 52, 50, 42, 41, 40, 38, 33, 30], [70, 60, 58, 52, 50, 48, 44, 27], [66, 63, 58, 57, 52, 51, 50, 49, 48, 44, 40, 33], [71, 70, 69, 66, 61, 60, 59, 58, 54, 53, 52, 51, 50, 48, 46, 35], [70, 66, 63, 59, 55, 51, 50, 46, 44, 42, 38, 37], [79, 60, 57, 54, 50, 47, 38, 30], [78, 71, 66, 63, 58, 57, 55, 50, 45, 41, 33], [101, 75, 69, 54, 52, 50, 47, 44, 30], [71, 66, 63, 53, 52, 50, 48, 47, 41, 40, 38], [80, 66, 63, 60, 59, 58, 53, 52, 51, 50, 48, 40, 38], [71, 70, 57, 53, 51, 50, 47, 38, 37], [101, 79, 78, 75, 70, 69, 68, 66, 64, 61, 58, 57, 51, 50, 49, 48, 47], [80, 79, 78, 75, 68, 66, 63, 62, 59, 57, 54, 51, 50, 48, 44], [100, 76, 70, 69, 68, 63, 61, 58, 56, 53, 52, 51, 47, 41], [66, 63, 57, 54, 51, 49, 47, 41, 38], [101, 71, 66, 63, 58, 54, 50, 47, 38], [101, 100, 78, 75, 68, 66, 63, 54, 53, 51, 50, 49, 47], [80, 78, 72, 71, 70, 68, 66, 63, 62, 58, 53, 51, 48], [101, 78, 68, 65, 61, 54, 50, 49, 46], [100, 79, 76, 75, 68, 67, 63, 62, 61, 60, 59, 58, 53], [101, 100, 75, 70, 69, 68, 67, 61, 54, 47], [68, 67, 54, 47, 41], [101, 98, 80, 79, 78, 76, 72, 68, 63, 62, 57, 56], [100, 83, 68, 50, 47], [101, 99, 80, 75, 72, 68, 60, 48], [100, 99, 98, 83, 78, 75, 72, 69, 68, 64, 61, 56], [96, 82, 80, 77, 76, 75, 72, 66, 65, 62, 57, 56], [101, 79, 78, 73, 70, 69, 68, 65, 56], [101, 95, 83, 81, 79, 75, 74, 72, 65, 64, 59], [99, 95, 80, 78, 74, 71, 68, 67, 65, 64, 61], [100, 99, 98, 97, 79, 75, 68, 67, 64, 54], [83, 74, 72, 71, 65, 61, 53], [99, 98, 97, 95, 82, 80, 76, 68, 54], [100, 99, 97, 93, 77, 75, 64, 62, 56], [99, 82, 80, 74, 65, 62, 59], [100, 98, 97, 96, 91, 83, 82, 76, 56], [98, 96, 95, 93, 92, 91, 89, 83, 80, 74, 73, 67], [76, 72, 56], [98, 97, 96, 95, 93, 92, 91, 89, 88, 87, 86, 83, 82, 73], [97, 95, 93, 92, 91, 90, 89, 78, 77, 67], [98, 97, 96, 95, 94, 89, 81, 64], [96, 94, 89, 83, 81, 77, 73, 72], [100, 97, 96, 95, 93, 91, 90, 89, 87, 86, 83, 82], [95, 92, 90, 89, 74, 67], [99, 89, 83, 73, 67], [99, 89, 77, 65], [97, 96, 93, 91, 90, 89, 87, 86, 84, 77], [93, 92, 91, 90, 89, 87, 86, 83, 81, 78], [96, 93, 89, 87, 86, 82, 81, 77], [95, 91, 89, 88, 87, 86, 73], [97, 96, 93, 87, 82, 81, 74], [91, 88, 87, 86, 82, 73], [98, 94, 93, 92, 91, 86, 84], [95, 90, 89, 88, 87, 85, 84], [94, 88, 87, 86, 85, 81], [92, 89, 86, 84, 77], [97, 93, 88, 87, 86, 84], [99, 90, 86, 84, 83], [92, 81, 77], [92, 91, 87, 86, 85], [90, 85, 84], [86, 85, 84], [86, 85, 84], [93, 92, 85], [88, 85], [85, 84], [85, 84], [81], [84], [84], [85], [102], [102], [102], [102], [102], [102], [102], [102], [102], [102], [102], [102], [102], [102], [102], [102], [102], [102], []]
letting durations = [[0], [1, 2, 4], [3, 5, 10], [6, 7, 8], [3, 6, 10], [3, 4, 7], [1, 3, 10], [2, 5, 9], [1, 6, 7], [4, 8, 9], [6, 9, 9], [1, 9, 10], [1, 7, 9], [3, 6, 7], [6, 8, 8], [1, 4, 7], [1, 2, 8], [7, 9, 10], [8, 9, 10], [2, 5, 10], [5, 7, 8], [2, 7, 9], [3, 5, 9], [5, 8, 9], [2, 3, 4], [1, 6, 10], [3, 4, 9], [1, 4, 4], [1, 2, 7], [2, 8, 9], [1, 5, 6], [4, 6, 10], [3, 6, 9], [1, 3, 8], [5, 7, 9], [5, 7, 9], [3, 4, 5], [5, 8, 10], [1, 4, 10], [1, 5, 6], [3, 3, 5], [6, 6, 10], [2, 3, 10], [3, 4, 7], [3, 4, 6], [2, 3, 5], [2, 4, 6], [3, 7, 10], [3, 4, 6], [3, 8, 9], [2, 5, 5], [1, 5, 7], [2, 2, 7], [2, 8, 9], [3, 5, 7], [3, 4, 5], [1, 3, 6], [6, 6, 8], [1, 2, 9], [5, 9, 10], [3, 7, 10], [7, 8, 10], [5, 7, 8], [3, 8, 9], [2, 6, 7], [2, 4, 7], [5, 6, 10], [1, 2, 6], [1, 6, 9], [7, 7, 8], [1, 3, 5], [5, 6, 7], [1, 3, 10], [1, 8, 10], [2, 3, 8], [6, 8, 10], [6, 6, 10], [3, 4, 6], [3, 4, 7], [7, 8, 10], [7, 9, 10], [6, 9, 10], [1, 2, 8], [2, 5, 10], [4, 6, 8], [1, 4, 8], [5, 8, 9], [1, 4, 10], [3, 4, 4], [1, 7, 10], [1, 3, 9], [5, 9, 9], [5, 8, 10], [1, 2, 10], [6, 7, 9], [3, 8, 9], [2, 6, 10], [3, 5, 9], [7, 10, 10], [4, 6, 7], [3, 6, 9], [0]]
letting resourceUsage = [[[0, 0, 0, 0]], [[4, 2, 0, 3], [4, 2, 3, 0], [4, 2, 2, 0]], [[2, 2, 9, 0], [2, 2, 0, 5], [2, 1, 0, 2]], [[5, 5, 10, 0], [3, 3, 9, 0], [3, 3, 8, 0]], [[3, 3, 0, 4], [2, 2, 4, 0], [2, 1, 0, 3]], [[2, 2, 0, 3], [1, 1, 4, 0], [1, 1, 2, 0]], [[1, 4, 0, 8], [1, 2, 0, 4], [1, 2, 0, 1]], [[3, 2, 0, 9], [3, 2, 0, 8], [3, 2, 0, 7]], [[4, 4, 9, 0], [2, 3, 6, 0], [2, 2, 3, 0]], [[1, 4, 5, 0], [1, 4, 3, 0], [1, 4, 2, 0]], [[2, 5, 3, 0], [1, 3, 0, 5], [1, 3, 2, 0]], [[3, 5, 0, 7], [3, 3, 0, 4], [3, 2, 0, 2]], [[5, 3, 7, 0], [5, 2, 0, 6], [5, 2, 0, 5]], [[3, 4, 3, 0], [2, 4, 0, 5], [2, 4, 2, 0]], [[5, 5, 3, 0], [4, 4, 0, 4], [3, 4, 2, 0]], [[2, 5, 0, 7], [2, 5, 0, 6], [2, 5, 0, 5]], [[4, 2, 0, 8], [2, 2, 0, 7], [2, 2, 9, 0]], [[3, 3, 0, 6], [2, 3, 3, 0], [1, 1, 0, 5]], [[4, 2, 0, 6], [3, 1, 0, 5], [3, 1, 2, 0]], [[3, 1, 0, 4], [2, 1, 0, 2], [2, 1, 0, 1]], [[5, 4, 0, 9], [4, 3, 5, 0], [4, 2, 5, 0]], [[1, 4, 8, 0], [1, 3, 7, 0], [1, 3, 0, 3]], [[4, 1, 8, 0], [3, 1, 7, 0], [3, 1, 6, 0]], [[4, 3, 0, 10], [3, 3, 9, 0], [2, 2, 7, 0]], [[4, 3, 6, 0], [3, 3, 0, 5], [2, 3, 5, 0]], [[4, 1, 10, 0], [4, 1, 8, 0], [4, 1, 6, 0]], [[4, 5, 0, 7], [4, 5, 7, 0], [4, 5, 6, 0]], [[5, 3, 4, 0], [3, 2, 4, 0], [3, 2, 0, 3]], [[5, 5, 5, 0], [2, 5, 0, 2], [2, 5, 0, 1]], [[4, 4, 0, 8], [3, 2, 4, 0], [1, 1, 0, 3]], [[1, 1, 0, 5], [1, 1, 8, 0], [1, 1, 7, 0]], [[1, 4, 0, 6], [1, 3, 4, 0], [1, 2, 3, 0]], [[4, 4, 6, 0], [3, 4, 0, 7], [2, 3, 3, 0]], [[3, 4, 8, 0], [3, 4, 7, 0], [2, 3, 7, 0]], [[3, 3, 9, 0], [3, 2, 0, 8], [3, 2, 7, 0]], [[2, 4, 0, 9], [1, 3, 0, 7], [1, 2, 2, 0]], [[3, 3, 6, 0], [2, 2, 0, 4], [1, 2, 0, 4]], [[4, 3, 0, 2], [3, 1, 0, 2], [2, 1, 0, 2]], [[4, 1, 0, 8], [2, 1, 8, 0], [2, 1, 0, 5]], [[4, 4, 0, 10], [4, 4, 8, 0], [4, 4, 6, 0]], [[4, 4, 0, 6], [2, 4, 4, 0], [2, 4, 0, 5]], [[2, 3, 7, 0], [1, 2, 0, 3], [1, 1, 0, 2]], [[4, 3, 5, 0], [4, 3, 2, 0], [4, 2, 2, 0]], [[3, 4, 0, 7], [3, 3, 0, 5], [2, 2, 4, 0]], [[4, 4, 0, 7], [4, 4, 3, 0], [3, 3, 1, 0]], [[4, 5, 6, 0], [3, 4, 0, 7], [2, 3, 3, 0]], [[5, 1, 0, 4], [4, 1, 6, 0], [4, 1, 0, 4]], [[3, 4, 8, 0], [2, 2, 8, 0], [1, 1, 8, 0]], [[5, 2, 0, 5], [5, 2, 5, 0], [5, 2, 4, 0]], [[4, 5, 0, 3], [3, 2, 6, 0], [3, 2, 5, 0]], [[5, 3, 0, 5], [3, 3, 0, 4], [3, 3, 6, 0]], [[3, 4, 0, 1], [3, 3, 3, 0], [3, 3, 0, 1]], [[1, 5, 0, 9], [1, 4, 4, 0], [1, 4, 0, 6]], [[3, 4, 0, 10], [3, 2, 0, 7], [3, 2, 0, 5]], [[5, 4, 0, 2], [4, 3, 6, 0], [4, 2, 0, 2]], [[1, 3, 4, 0], [1, 3, 3, 0], [1, 2, 3, 0]], [[4, 1, 0, 3], [4, 1, 0, 2], [2, 1, 0, 2]], [[2, 3, 0, 5], [2, 3, 5, 0], [2, 3, 0, 1]], [[4, 4, 0, 4], [3, 2, 0, 4], [3, 2, 3, 0]], [[4, 4, 0, 7], [4, 4, 4, 0], [4, 3, 0, 7]], [[4, 4, 0, 8], [3, 2, 0, 7], [3, 2, 4, 0]], [[3, 3, 8, 0], [2, 2, 7, 0], [2, 1, 0, 5]], [[5, 3, 8, 0], [5, 2, 7, 0], [5, 2, 3, 0]], [[2, 5, 0, 5], [1, 3, 4, 0], [1, 3, 2, 0]], [[3, 4, 0, 4], [2, 4, 0, 4], [1, 4, 0, 4]], [[4, 2, 0, 9], [3, 2, 5, 0], [3, 2, 4, 0]], [[5, 2, 9, 0], [3, 2, 0, 5], [2, 1, 9, 0]], [[4, 4, 5, 0], [4, 3, 4, 0], [3, 1, 3, 0]], [[4, 1, 5, 0], [2, 1, 0, 5], [1, 1, 5, 0]], [[4, 2, 0, 9], [4, 2, 1, 0], [3, 2, 1, 0]], [[3, 4, 9, 0], [2, 4, 0, 9], [1, 3, 8, 0]], [[4, 4, 10, 0], [4, 3, 9, 0], [4, 3, 8, 0]], [[5, 4, 4, 0], [4, 2, 4, 0], [4, 2, 0, 4]], [[3, 3, 0, 9], [2, 2, 0, 8], [1, 2, 2, 0]], [[2, 4, 7, 0], [2, 3, 7, 0], [2, 2, 7, 0]], [[3, 4, 0, 6], [2, 3, 6, 0], [2, 3, 5, 0]], [[5, 2, 5, 0], [5, 1, 0, 3], [5, 1, 0, 2]], [[1, 4, 0, 6], [1, 2, 0, 5], [1, 2, 3, 0]], [[1, 4, 3, 0], [1, 3, 3, 0], [1, 3, 0, 4]], [[3, 3, 8, 0], [2, 3, 5, 0], [2, 2, 0, 2]], [[2, 1, 9, 0], [2, 1, 0, 4], [1, 1, 0, 4]], [[4, 5, 0, 5], [3, 4, 6, 0], [2, 4, 4, 0]], [[1, 3, 8, 0], [1, 3, 0, 5], [1, 3, 0, 4]], [[2, 2, 0, 4], [2, 2, 1, 0], [1, 1, 0, 4]], [[2, 3, 7, 0], [1, 2, 6, 0], [1, 2, 0, 1]], [[2, 4, 0, 9], [2, 3, 0, 4], [2, 1, 0, 2]], [[5, 4, 0, 4], [5, 3, 4, 0], [5, 3, 3, 0]], [[5, 5, 0, 9], [2, 3, 7, 0], [2, 2, 0, 5]], [[5, 5, 0, 6], [2, 3, 0, 6], [1, 1, 3, 0]], [[1, 4, 8, 0], [1, 3, 0, 8], [1, 1, 0, 8]], [[4, 2, 0, 10], [3, 1, 0, 8], [2, 1, 8, 0]], [[5, 4, 9, 0], [2, 3, 0, 3], [2, 3, 8, 0]], [[3, 2, 0, 6], [3, 1, 0, 6], [2, 1, 7, 0]], [[5, 3, 0, 5], [3, 3, 9, 0], [3, 2, 9, 0]], [[4, 3, 0, 2], [3, 2, 0, 1], [2, 1, 0, 1]], [[4, 3, 2, 0], [2, 3, 0, 5], [1, 3, 1, 0]], [[4, 4, 0, 4], [3, 4, 0, 2], [1, 3, 1, 0]], [[3, 3, 7, 0], [3, 2, 0, 3], [3, 1, 0, 2]], [[3, 3, 0, 5], [3, 2, 0, 3], [2, 2, 5, 0]], [[4, 4, 1, 0], [3, 3, 1, 0], [1, 2, 1, 0]], [[3, 3, 7, 0], [3, 3, 5, 0], [3, 3, 4, 0]], [[0, 0, 0, 0]]]
